LamabdaBuzatu/problem_mix.dat
set P := P1 P2 P3 P4;
set R := R1 R2;

param: p l :=
P1 1000 10
P2 1500 20
P3 2200 30
P4 2000 30;

param h: P1 P2 P3 P4:=
P1 2 1 1 1
P2 1 3 1 1 
P3 1 1 2 1
P4 1 1 1 4;

param a : R1 R2 :=
P1 20 31
P2 30 42
P3 62 51
P4 60 31;

param b :=
R1 4800
R2 4800;

param M := 1000000;
